 $CONTRL SCFTYP=RHF RUNTYP=optimize exetyp=run ICHARG=3
  COORD=UNIQUE UNITS=ANGS ecp=read dfttyp=b3lyp MAXIT=100 $END
 $SYSTEM TIMLIM=10000 MWORDS=38 $END
 $SMP CALL64=.T. $END
 $p2p p2p=.t. dlb=.t. $end
 $statpt opttol=1e-5 nstep=1000 $end
 $GUESS GUESS=huckel $END
 $scf dirscf=.t. $end
 $DATA
LANTHANUM  57.0      0.696368947        -0.016352275         1.189181553
 s 3
  1 5.0873990 -0.4172430
  2 4.2709780 0.8860100
  3 1.9154580 -1.4197520
 s 1
  1 0.5255960 1.0
 s 1
  1 0.2634740 1.01
 s 1
  1 0.0488200 1.0
 s 1
  1 0.0228360 1.0
 p 3
  1 3.0251610 0.5381960
  2 2.3820950 -0.9816400
  3 0.5844260 1.2395900
 p 1
  1 0.2603600 1.0
 p 1
  1 0.0833340 1.0
 p 1
  1 0.0302750 1.0
 d 3
  1 1.5768240 -0.0969440
  2 0.5923900 0.4074660
  3 0.2495000 0.7043630
 d 1
  1 0.1065130 1.0
 d 1
  1 0.0458310 1.0
  
OXYGEN      8.0     -1.384084753         0.070385794         2.643881196
 S   6
  1   5484.6717000              0.0018311        
  2    825.2349500              0.0139501        
  3    188.0469600              0.0684451        
  4     52.9645000              0.2327143        
  5     16.8975700              0.4701930        
  6      5.7996353              0.3585209        
 L   3
  1     15.5396160             -0.1107775              0.0708743        
  2      3.5999336             -0.1480263              0.3397528        
  3      1.0137618              1.1307670              0.7271586        
 L   1
  1      0.2700058              1.0000000              1.0000000        
 D   1
  1      0.8000000              1.0000000    

HYDROGEN    1.0      0.373151957        -2.780715618        -0.462926234
 S   3
  1     18.7311370              0.03349460       
  2      2.8253937              0.23472695       
  3      0.6401217              0.81375733       
 S   1
  1      0.1612778              1.0000000       

HYDROGEN    1.0      1.036328775         2.741960631         2.848810275
 S   3
  1     18.7311370              0.03349460       
  2      2.8253937              0.23472695       
  3      0.6401217              0.81375733       
 S   1
  1      0.1612778              1.0000000       

HYDROGEN    1.0      2.299883573         2.687109159         1.958333901
 S   3
  1     18.7311370              0.03349460       
  2      2.8253937              0.23472695       
  3      0.6401217              0.81375733       
 S   1
  1      0.1612778              1.0000000       

HYDROGEN    1.0      2.890672099         0.255984077        -1.174379896
 S   3
  1     18.7311370              0.03349460       
  2      2.8253937              0.23472695       
  3      0.6401217              0.81375733       
 S   1
  1      0.1612778              1.0000000       

OXYGEN      8.0     -0.538516287         1.237302692        -0.642844651
 S   6
  1   5484.6717000              0.0018311        
  2    825.2349500              0.0139501        
  3    188.0469600              0.0684451        
  4     52.9645000              0.2327143        
  5     16.8975700              0.4701930        
  6      5.7996353              0.3585209        
 L   3
  1     15.5396160             -0.1107775              0.0708743        
  2      3.5999336             -0.1480263              0.3397528        
  3      1.0137618              1.1307670              0.7271586        
 L   1
  1      0.2700058              1.0000000              1.0000000        
 D   1
  1      0.8000000              1.0000000    

HYDROGEN    1.0      1.986757776        -2.230954847         3.165129852
 S   3
  1     18.7311370              0.03349460       
  2      2.8253937              0.23472695       
  3      0.6401217              0.81375733       
 S   1
  1      0.1612778              1.0000000       

OXYGEN      8.0      1.930275019        -1.261977850         3.027031293
 S   6
  1   5484.6717000              0.0018311        
  2    825.2349500              0.0139501        
  3    188.0469600              0.0684451        
  4     52.9645000              0.2327143        
  5     16.8975700              0.4701930        
  6      5.7996353              0.3585209        
 L   3
  1     15.5396160             -0.1107775              0.0708743        
  2      3.5999336             -0.1480263              0.3397528        
  3      1.0137618              1.1307670              0.7271586        
 L   1
  1      0.2700058              1.0000000              1.0000000        
 D   1
  1      0.8000000              1.0000000    

HYDROGEN    1.0     -2.252621778         0.471466336         2.429540827
 S   3
  1     18.7311370              0.03349460       
  2      2.8253937              0.23472695       
  3      0.6401217              0.81375733       
 S   1
  1      0.1612778              1.0000000       

HYDROGEN    1.0     -1.502456610        -0.288548160         3.548521787
 S   3
  1     18.7311370              0.03349460       
  2      2.8253937              0.23472695       
  3      0.6401217              0.81375733       
 S   1
  1      0.1612778              1.0000000       

HYDROGEN    1.0     -0.592572280         2.206881321        -0.777719543
 S   3
  1     18.7311370              0.03349460       
  2      2.8253937              0.23472695       
  3      0.6401217              0.81375733       
 S   1
  1      0.1612778              1.0000000       

OXYGEN      8.0      2.775212596        -0.100184454        -0.268278898
 S   6
  1   5484.6717000              0.0018311        
  2    825.2349500              0.0139501        
  3    188.0469600              0.0684451        
  4     52.9645000              0.2327143        
  5     16.8975700              0.4701930        
  6      5.7996353              0.3585209        
 L   3
  1     15.5396160             -0.1107775              0.0708743        
  2      3.5999336             -0.1480263              0.3397528        
  3      1.0137618              1.1307670              0.7271586        
 L   1
  1      0.2700058              1.0000000              1.0000000        
 D   1
  1      0.8000000              1.0000000    

HYDROGEN    1.0     -1.069844706         0.863269783        -1.377003286
 S   3
  1     18.7311370              0.03349460       
  2      2.8253937              0.23472695       
  3      0.6401217              0.81375733       
 S   1
  1      0.1612778              1.0000000       

HYDROGEN    1.0     -0.895977913        -2.726642206         0.419583175
 S   3
  1     18.7311370              0.03349460       
  2      2.8253937              0.23472695       
  3      0.6401217              0.81375733       
 S   1
  1      0.1612778              1.0000000       

HYDROGEN    1.0      3.645700507        -0.496990664        -0.053924641
 S   3
  1     18.7311370              0.03349460       
  2      2.8253937              0.23472695       
  3      0.6401217              0.81375733       
 S   1
  1      0.1612778              1.0000000       

OXYGEN      8.0     -0.077579675        -2.228903870         0.210514477
 S   6
  1   5484.6717000              0.0018311        
  2    825.2349500              0.0139501        
  3    188.0469600              0.0684451        
  4     52.9645000              0.2327143        
  5     16.8975700              0.4701930        
  6      5.7996353              0.3585209        
 L   3
  1     15.5396160             -0.1107775              0.0708743        
  2      3.5999336             -0.1480263              0.3397528        
  3      1.0137618              1.1307670              0.7271586        
 L   1
  1      0.2700058              1.0000000              1.0000000        
 D   1
  1      0.8000000              1.0000000    

OXYGEN      8.0      1.481534279         2.190899191         2.171102664
 S   6
  1   5484.6717000              0.0018311        
  2    825.2349500              0.0139501        
  3    188.0469600              0.0684451        
  4     52.9645000              0.2327143        
  5     16.8975700              0.4701930        
  6      5.7996353              0.3585209        
 L   3
  1     15.5396160             -0.1107775              0.0708743        
  2      3.5999336             -0.1480263              0.3397528        
  3      1.0137618              1.1307670              0.7271586        
 L   1
  1      0.2700058              1.0000000              1.0000000        
 D   1
  1      0.8000000              1.0000000    

HYDROGEN    1.0      2.459281114        -0.884018151         3.760822283
 S   3
  1     18.7311370              0.03349460       
  2      2.8253937              0.23472695       
  3      0.6401217              0.81375733       
 S   1
  1      0.1612778              1.0000000       

 $END
 $ECP
 LA-ECP GEN 46 4
 1 -------- G POTENTIAL -------
 0.000000 2 1.000000
 2 -------- S-G POTENTIAL ------
 91.932177 2 3.309900
 -3.788764 2 1.655000
 2 -------- P-G POTENTIAL ------
 63.759486 2 2.836800
 -0.647958 2 1.418400
 2 -------- D-G POTENTIAL ------
 36.116173 2 2.021300
 0.219114  2 1.010700
 1 -------- F-G POTENTIAL ------
 -68.468426 2 5.883800
 O none
 O none
 O none
 O none
 O none
 O none
 H none
 H none
 H none
 H none
 H none
 H none
 H none
 H none
 H none
 H none
 H none
 H none
 $END
